TYPE: ATSP
DIMENSION: 10
FORMAT: FULL_MATRIX
OPT: 188
DATA_SECTION
0 19 21 45 38 32 42 29 37 41
16 0 26 14 30 24 18 39 43 34
25 27 0 33 29 22 31 41 28 20
40 35 18 0 25 30 24 17 34 23
32 41 30 29 0 45 21 28 19 36
34 28 31 24 17 0 27 38 20 50
29 23 35 31 18 26 0 15 46 39
36 40 28 19 24 50 33 0 22 13
47 31 24 37 28 39 21 45 0 16
30 42 33 22 41 26 48 37 34 0
EOF

